p cnf 192 2016
1 2 3 4 0
5 6 7 8 0
9 10 11 12 0
13 14 15 16 0
17 18 19 20 0
21 22 23 24 0
25 26 27 28 0
29 30 31 32 0
33 34 35 36 0
37 38 39 40 0
41 42 43 44 0
45 46 47 48 0
49 50 51 52 0
53 54 55 56 0
57 58 59 60 0
61 62 63 64 0
65 66 67 68 0
69 70 71 72 0
73 74 75 76 0
77 78 79 80 0
81 82 83 84 0
85 86 87 88 0
89 90 91 92 0
93 94 95 96 0
97 98 99 100 0
101 102 103 104 0
105 106 107 108 0
109 110 111 112 0
113 114 115 116 0
117 118 119 120 0
121 122 123 124 0
125 126 127 128 0
129 130 131 132 0
133 134 135 136 0
137 138 139 140 0
141 142 143 144 0
145 146 147 148 0
149 150 151 152 0
153 154 155 156 0
157 158 159 160 0
161 162 163 164 0
165 166 167 168 0
169 170 171 172 0
173 174 175 176 0
177 178 179 180 0
181 182 183 184 0
185 186 187 188 0
189 190 191 192 0
-2 -1 0
-3 -1 0
-3 -2 0
-4 -1 0
-4 -2 0
-4 -3 0
-6 -5 0
-7 -5 0
-7 -6 0
-8 -5 0
-8 -6 0
-8 -7 0
-10 -9 0
-11 -9 0
-11 -10 0
-12 -9 0
-12 -10 0
-12 -11 0
-14 -13 0
-15 -13 0
-15 -14 0
-16 -13 0
-16 -14 0
-16 -15 0
-18 -17 0
-19 -17 0
-19 -18 0
-20 -17 0
-20 -18 0
-20 -19 0
-22 -21 0
-23 -21 0
-23 -22 0
-24 -21 0
-24 -22 0
-24 -23 0
-26 -25 0
-27 -25 0
-27 -26 0
-28 -25 0
-28 -26 0
-28 -27 0
-30 -29 0
-31 -29 0
-31 -30 0
-32 -29 0
-32 -30 0
-32 -31 0
-34 -33 0
-35 -33 0
-35 -34 0
-36 -33 0
-36 -34 0
-36 -35 0
-38 -37 0
-39 -37 0
-39 -38 0
-40 -37 0
-40 -38 0
-40 -39 0
-42 -41 0
-43 -41 0
-43 -42 0
-44 -41 0
-44 -42 0
-44 -43 0
-46 -45 0
-47 -45 0
-47 -46 0
-48 -45 0
-48 -46 0
-48 -47 0
-50 -49 0
-51 -49 0
-51 -50 0
-52 -49 0
-52 -50 0
-52 -51 0
-54 -53 0
-55 -53 0
-55 -54 0
-56 -53 0
-56 -54 0
-56 -55 0
-58 -57 0
-59 -57 0
-59 -58 0
-60 -57 0
-60 -58 0
-60 -59 0
-62 -61 0
-63 -61 0
-63 -62 0
-64 -61 0
-64 -62 0
-64 -63 0
-66 -65 0
-67 -65 0
-67 -66 0
-68 -65 0
-68 -66 0
-68 -67 0
-70 -69 0
-71 -69 0
-71 -70 0
-72 -69 0
-72 -70 0
-72 -71 0
-74 -73 0
-75 -73 0
-75 -74 0
-76 -73 0
-76 -74 0
-76 -75 0
-78 -77 0
-79 -77 0
-79 -78 0
-80 -77 0
-80 -78 0
-80 -79 0
-82 -81 0
-83 -81 0
-83 -82 0
-84 -81 0
-84 -82 0
-84 -83 0
-86 -85 0
-87 -85 0
-87 -86 0
-88 -85 0
-88 -86 0
-88 -87 0
-90 -89 0
-91 -89 0
-91 -90 0
-92 -89 0
-92 -90 0
-92 -91 0
-94 -93 0
-95 -93 0
-95 -94 0
-96 -93 0
-96 -94 0
-96 -95 0
-98 -97 0
-99 -97 0
-99 -98 0
-100 -97 0
-100 -98 0
-100 -99 0
-102 -101 0
-103 -101 0
-103 -102 0
-104 -101 0
-104 -102 0
-104 -103 0
-106 -105 0
-107 -105 0
-107 -106 0
-108 -105 0
-108 -106 0
-108 -107 0
-110 -109 0
-111 -109 0
-111 -110 0
-112 -109 0
-112 -110 0
-112 -111 0
-114 -113 0
-115 -113 0
-115 -114 0
-116 -113 0
-116 -114 0
-116 -115 0
-118 -117 0
-119 -117 0
-119 -118 0
-120 -117 0
-120 -118 0
-120 -119 0
-122 -121 0
-123 -121 0
-123 -122 0
-124 -121 0
-124 -122 0
-124 -123 0
-126 -125 0
-127 -125 0
-127 -126 0
-128 -125 0
-128 -126 0
-128 -127 0
-130 -129 0
-131 -129 0
-131 -130 0
-132 -129 0
-132 -130 0
-132 -131 0
-134 -133 0
-135 -133 0
-135 -134 0
-136 -133 0
-136 -134 0
-136 -135 0
-138 -137 0
-139 -137 0
-139 -138 0
-140 -137 0
-140 -138 0
-140 -139 0
-142 -141 0
-143 -141 0
-143 -142 0
-144 -141 0
-144 -142 0
-144 -143 0
-146 -145 0
-147 -145 0
-147 -146 0
-148 -145 0
-148 -146 0
-148 -147 0
-150 -149 0
-151 -149 0
-151 -150 0
-152 -149 0
-152 -150 0
-152 -151 0
-154 -153 0
-155 -153 0
-155 -154 0
-156 -153 0
-156 -154 0
-156 -155 0
-158 -157 0
-159 -157 0
-159 -158 0
-160 -157 0
-160 -158 0
-160 -159 0
-162 -161 0
-163 -161 0
-163 -162 0
-164 -161 0
-164 -162 0
-164 -163 0
-166 -165 0
-167 -165 0
-167 -166 0
-168 -165 0
-168 -166 0
-168 -167 0
-170 -169 0
-171 -169 0
-171 -170 0
-172 -169 0
-172 -170 0
-172 -171 0
-174 -173 0
-175 -173 0
-175 -174 0
-176 -173 0
-176 -174 0
-176 -175 0
-178 -177 0
-179 -177 0
-179 -178 0
-180 -177 0
-180 -178 0
-180 -179 0
-182 -181 0
-183 -181 0
-183 -182 0
-184 -181 0
-184 -182 0
-184 -183 0
-186 -185 0
-187 -185 0
-187 -186 0
-188 -185 0
-188 -186 0
-188 -187 0
-190 -189 0
-191 -189 0
-191 -190 0
-192 -189 0
-192 -190 0
-192 -191 0
-37 -33 -5 -1 0
-38 -34 -6 -2 0
-39 -35 -7 -3 0
-40 -36 -8 -4 0
-41 -33 -9 -1 0
-42 -34 -10 -2 0
-43 -35 -11 -3 0
-44 -36 -12 -4 0
-41 -37 -9 -5 0
-42 -38 -10 -6 0
-43 -39 -11 -7 0
-44 -40 -12 -8 0
-45 -33 -13 -1 0
-46 -34 -14 -2 0
-47 -35 -15 -3 0
-48 -36 -16 -4 0
-45 -37 -13 -5 0
-46 -38 -14 -6 0
-47 -39 -15 -7 0
-48 -40 -16 -8 0
-45 -41 -13 -9 0
-46 -42 -14 -10 0
-47 -43 -15 -11 0
-48 -44 -16 -12 0
-49 -33 -17 -1 0
-50 -34 -18 -2 0
-51 -35 -19 -3 0
-52 -36 -20 -4 0
-49 -37 -17 -5 0
-50 -38 -18 -6 0
-51 -39 -19 -7 0
-52 -40 -20 -8 0
-49 -41 -17 -9 0
-50 -42 -18 -10 0
-51 -43 -19 -11 0
-52 -44 -20 -12 0
-49 -45 -17 -13 0
-50 -46 -18 -14 0
-51 -47 -19 -15 0
-52 -48 -20 -16 0
-53 -33 -21 -1 0
-54 -34 -22 -2 0
-55 -35 -23 -3 0
-56 -36 -24 -4 0
-53 -37 -21 -5 0
-54 -38 -22 -6 0
-55 -39 -23 -7 0
-56 -40 -24 -8 0
-53 -41 -21 -9 0
-54 -42 -22 -10 0
-55 -43 -23 -11 0
-56 -44 -24 -12 0
-53 -45 -21 -13 0
-54 -46 -22 -14 0
-55 -47 -23 -15 0
-56 -48 -24 -16 0
-53 -49 -21 -17 0
-54 -50 -22 -18 0
-55 -51 -23 -19 0
-56 -52 -24 -20 0
-57 -33 -25 -1 0
-58 -34 -26 -2 0
-59 -35 -27 -3 0
-60 -36 -28 -4 0
-57 -37 -25 -5 0
-58 -38 -26 -6 0
-59 -39 -27 -7 0
-60 -40 -28 -8 0
-57 -41 -25 -9 0
-58 -42 -26 -10 0
-59 -43 -27 -11 0
-60 -44 -28 -12 0
-57 -45 -25 -13 0
-58 -46 -26 -14 0
-59 -47 -27 -15 0
-60 -48 -28 -16 0
-57 -49 -25 -17 0
-58 -50 -26 -18 0
-59 -51 -27 -19 0
-60 -52 -28 -20 0
-57 -53 -25 -21 0
-58 -54 -26 -22 0
-59 -55 -27 -23 0
-60 -56 -28 -24 0
-61 -33 -29 -1 0
-62 -34 -30 -2 0
-63 -35 -31 -3 0
-64 -36 -32 -4 0
-61 -37 -29 -5 0
-62 -38 -30 -6 0
-63 -39 -31 -7 0
-64 -40 -32 -8 0
-61 -41 -29 -9 0
-62 -42 -30 -10 0
-63 -43 -31 -11 0
-64 -44 -32 -12 0
-61 -45 -29 -13 0
-62 -46 -30 -14 0
-63 -47 -31 -15 0
-64 -48 -32 -16 0
-61 -49 -29 -17 0
-62 -50 -30 -18 0
-63 -51 -31 -19 0
-64 -52 -32 -20 0
-61 -53 -29 -21 0
-62 -54 -30 -22 0
-63 -55 -31 -23 0
-64 -56 -32 -24 0
-61 -57 -29 -25 0
-62 -58 -30 -26 0
-63 -59 -31 -27 0
-64 -60 -32 -28 0
-69 -65 -5 -1 0
-70 -66 -6 -2 0
-71 -67 -7 -3 0
-72 -68 -8 -4 0
-73 -65 -9 -1 0
-74 -66 -10 -2 0
-75 -67 -11 -3 0
-76 -68 -12 -4 0
-73 -69 -9 -5 0
-74 -70 -10 -6 0
-75 -71 -11 -7 0
-76 -72 -12 -8 0
-77 -65 -13 -1 0
-78 -66 -14 -2 0
-79 -67 -15 -3 0
-80 -68 -16 -4 0
-77 -69 -13 -5 0
-78 -70 -14 -6 0
-79 -71 -15 -7 0
-80 -72 -16 -8 0
-77 -73 -13 -9 0
-78 -74 -14 -10 0
-79 -75 -15 -11 0
-80 -76 -16 -12 0
-81 -65 -17 -1 0
-82 -66 -18 -2 0
-83 -67 -19 -3 0
-84 -68 -20 -4 0
-81 -69 -17 -5 0
-82 -70 -18 -6 0
-83 -71 -19 -7 0
-84 -72 -20 -8 0
-81 -73 -17 -9 0
-82 -74 -18 -10 0
-83 -75 -19 -11 0
-84 -76 -20 -12 0
-81 -77 -17 -13 0
-82 -78 -18 -14 0
-83 -79 -19 -15 0
-84 -80 -20 -16 0
-85 -65 -21 -1 0
-86 -66 -22 -2 0
-87 -67 -23 -3 0
-88 -68 -24 -4 0
-85 -69 -21 -5 0
-86 -70 -22 -6 0
-87 -71 -23 -7 0
-88 -72 -24 -8 0
-85 -73 -21 -9 0
-86 -74 -22 -10 0
-87 -75 -23 -11 0
-88 -76 -24 -12 0
-85 -77 -21 -13 0
-86 -78 -22 -14 0
-87 -79 -23 -15 0
-88 -80 -24 -16 0
-85 -81 -21 -17 0
-86 -82 -22 -18 0
-87 -83 -23 -19 0
-88 -84 -24 -20 0
-89 -65 -25 -1 0
-90 -66 -26 -2 0
-91 -67 -27 -3 0
-92 -68 -28 -4 0
-89 -69 -25 -5 0
-90 -70 -26 -6 0
-91 -71 -27 -7 0
-92 -72 -28 -8 0
-89 -73 -25 -9 0
-90 -74 -26 -10 0
-91 -75 -27 -11 0
-92 -76 -28 -12 0
-89 -77 -25 -13 0
-90 -78 -26 -14 0
-91 -79 -27 -15 0
-92 -80 -28 -16 0
-89 -81 -25 -17 0
-90 -82 -26 -18 0
-91 -83 -27 -19 0
-92 -84 -28 -20 0
-89 -85 -25 -21 0
-90 -86 -26 -22 0
-91 -87 -27 -23 0
-92 -88 -28 -24 0
-93 -65 -29 -1 0
-94 -66 -30 -2 0
-95 -67 -31 -3 0
-96 -68 -32 -4 0
-93 -69 -29 -5 0
-94 -70 -30 -6 0
-95 -71 -31 -7 0
-96 -72 -32 -8 0
-93 -73 -29 -9 0
-94 -74 -30 -10 0
-95 -75 -31 -11 0
-96 -76 -32 -12 0
-93 -77 -29 -13 0
-94 -78 -30 -14 0
-95 -79 -31 -15 0
-96 -80 -32 -16 0
-93 -81 -29 -17 0
-94 -82 -30 -18 0
-95 -83 -31 -19 0
-96 -84 -32 -20 0
-93 -85 -29 -21 0
-94 -86 -30 -22 0
-95 -87 -31 -23 0
-96 -88 -32 -24 0
-93 -89 -29 -25 0
-94 -90 -30 -26 0
-95 -91 -31 -27 0
-96 -92 -32 -28 0
-69 -65 -37 -33 0
-70 -66 -38 -34 0
-71 -67 -39 -35 0
-72 -68 -40 -36 0
-73 -65 -41 -33 0
-74 -66 -42 -34 0
-75 -67 -43 -35 0
-76 -68 -44 -36 0
-73 -69 -41 -37 0
-74 -70 -42 -38 0
-75 -71 -43 -39 0
-76 -72 -44 -40 0
-77 -65 -45 -33 0
-78 -66 -46 -34 0
-79 -67 -47 -35 0
-80 -68 -48 -36 0
-77 -69 -45 -37 0
-78 -70 -46 -38 0
-79 -71 -47 -39 0
-80 -72 -48 -40 0
-77 -73 -45 -41 0
-78 -74 -46 -42 0
-79 -75 -47 -43 0
-80 -76 -48 -44 0
-81 -65 -49 -33 0
-82 -66 -50 -34 0
-83 -67 -51 -35 0
-84 -68 -52 -36 0
-81 -69 -49 -37 0
-82 -70 -50 -38 0
-83 -71 -51 -39 0
-84 -72 -52 -40 0
-81 -73 -49 -41 0
-82 -74 -50 -42 0
-83 -75 -51 -43 0
-84 -76 -52 -44 0
-81 -77 -49 -45 0
-82 -78 -50 -46 0
-83 -79 -51 -47 0
-84 -80 -52 -48 0
-85 -65 -53 -33 0
-86 -66 -54 -34 0
-87 -67 -55 -35 0
-88 -68 -56 -36 0
-85 -69 -53 -37 0
-86 -70 -54 -38 0
-87 -71 -55 -39 0
-88 -72 -56 -40 0
-85 -73 -53 -41 0
-86 -74 -54 -42 0
-87 -75 -55 -43 0
-88 -76 -56 -44 0
-85 -77 -53 -45 0
-86 -78 -54 -46 0
-87 -79 -55 -47 0
-88 -80 -56 -48 0
-85 -81 -53 -49 0
-86 -82 -54 -50 0
-87 -83 -55 -51 0
-88 -84 -56 -52 0
-89 -65 -57 -33 0
-90 -66 -58 -34 0
-91 -67 -59 -35 0
-92 -68 -60 -36 0
-89 -69 -57 -37 0
-90 -70 -58 -38 0
-91 -71 -59 -39 0
-92 -72 -60 -40 0
-89 -73 -57 -41 0
-90 -74 -58 -42 0
-91 -75 -59 -43 0
-92 -76 -60 -44 0
-89 -77 -57 -45 0
-90 -78 -58 -46 0
-91 -79 -59 -47 0
-92 -80 -60 -48 0
-89 -81 -57 -49 0
-90 -82 -58 -50 0
-91 -83 -59 -51 0
-92 -84 -60 -52 0
-89 -85 -57 -53 0
-90 -86 -58 -54 0
-91 -87 -59 -55 0
-92 -88 -60 -56 0
-93 -65 -61 -33 0
-94 -66 -62 -34 0
-95 -67 -63 -35 0
-96 -68 -64 -36 0
-93 -69 -61 -37 0
-94 -70 -62 -38 0
-95 -71 -63 -39 0
-96 -72 -64 -40 0
-93 -73 -61 -41 0
-94 -74 -62 -42 0
-95 -75 -63 -43 0
-96 -76 -64 -44 0
-93 -77 -61 -45 0
-94 -78 -62 -46 0
-95 -79 -63 -47 0
-96 -80 -64 -48 0
-93 -81 -61 -49 0
-94 -82 -62 -50 0
-95 -83 -63 -51 0
-96 -84 -64 -52 0
-93 -85 -61 -53 0
-94 -86 -62 -54 0
-95 -87 -63 -55 0
-96 -88 -64 -56 0
-93 -89 -61 -57 0
-94 -90 -62 -58 0
-95 -91 -63 -59 0
-96 -92 -64 -60 0
-101 -97 -5 -1 0
-102 -98 -6 -2 0
-103 -99 -7 -3 0
-104 -100 -8 -4 0
-105 -97 -9 -1 0
-106 -98 -10 -2 0
-107 -99 -11 -3 0
-108 -100 -12 -4 0
-105 -101 -9 -5 0
-106 -102 -10 -6 0
-107 -103 -11 -7 0
-108 -104 -12 -8 0
-109 -97 -13 -1 0
-110 -98 -14 -2 0
-111 -99 -15 -3 0
-112 -100 -16 -4 0
-109 -101 -13 -5 0
-110 -102 -14 -6 0
-111 -103 -15 -7 0
-112 -104 -16 -8 0
-109 -105 -13 -9 0
-110 -106 -14 -10 0
-111 -107 -15 -11 0
-112 -108 -16 -12 0
-113 -97 -17 -1 0
-114 -98 -18 -2 0
-115 -99 -19 -3 0
-116 -100 -20 -4 0
-113 -101 -17 -5 0
-114 -102 -18 -6 0
-115 -103 -19 -7 0
-116 -104 -20 -8 0
-113 -105 -17 -9 0
-114 -106 -18 -10 0
-115 -107 -19 -11 0
-116 -108 -20 -12 0
-113 -109 -17 -13 0
-114 -110 -18 -14 0
-115 -111 -19 -15 0
-116 -112 -20 -16 0
-117 -97 -21 -1 0
-118 -98 -22 -2 0
-119 -99 -23 -3 0
-120 -100 -24 -4 0
-117 -101 -21 -5 0
-118 -102 -22 -6 0
-119 -103 -23 -7 0
-120 -104 -24 -8 0
-117 -105 -21 -9 0
-118 -106 -22 -10 0
-119 -107 -23 -11 0
-120 -108 -24 -12 0
-117 -109 -21 -13 0
-118 -110 -22 -14 0
-119 -111 -23 -15 0
-120 -112 -24 -16 0
-117 -113 -21 -17 0
-118 -114 -22 -18 0
-119 -115 -23 -19 0
-120 -116 -24 -20 0
-121 -97 -25 -1 0
-122 -98 -26 -2 0
-123 -99 -27 -3 0
-124 -100 -28 -4 0
-121 -101 -25 -5 0
-122 -102 -26 -6 0
-123 -103 -27 -7 0
-124 -104 -28 -8 0
-121 -105 -25 -9 0
-122 -106 -26 -10 0
-123 -107 -27 -11 0
-124 -108 -28 -12 0
-121 -109 -25 -13 0
-122 -110 -26 -14 0
-123 -111 -27 -15 0
-124 -112 -28 -16 0
-121 -113 -25 -17 0
-122 -114 -26 -18 0
-123 -115 -27 -19 0
-124 -116 -28 -20 0
-121 -117 -25 -21 0
-122 -118 -26 -22 0
-123 -119 -27 -23 0
-124 -120 -28 -24 0
-125 -97 -29 -1 0
-126 -98 -30 -2 0
-127 -99 -31 -3 0
-128 -100 -32 -4 0
-125 -101 -29 -5 0
-126 -102 -30 -6 0
-127 -103 -31 -7 0
-128 -104 -32 -8 0
-125 -105 -29 -9 0
-126 -106 -30 -10 0
-127 -107 -31 -11 0
-128 -108 -32 -12 0
-125 -109 -29 -13 0
-126 -110 -30 -14 0
-127 -111 -31 -15 0
-128 -112 -32 -16 0
-125 -113 -29 -17 0
-126 -114 -30 -18 0
-127 -115 -31 -19 0
-128 -116 -32 -20 0
-125 -117 -29 -21 0
-126 -118 -30 -22 0
-127 -119 -31 -23 0
-128 -120 -32 -24 0
-125 -121 -29 -25 0
-126 -122 -30 -26 0
-127 -123 -31 -27 0
-128 -124 -32 -28 0
-101 -97 -37 -33 0
-102 -98 -38 -34 0
-103 -99 -39 -35 0
-104 -100 -40 -36 0
-105 -97 -41 -33 0
-106 -98 -42 -34 0
-107 -99 -43 -35 0
-108 -100 -44 -36 0
-105 -101 -41 -37 0
-106 -102 -42 -38 0
-107 -103 -43 -39 0
-108 -104 -44 -40 0
-109 -97 -45 -33 0
-110 -98 -46 -34 0
-111 -99 -47 -35 0
-112 -100 -48 -36 0
-109 -101 -45 -37 0
-110 -102 -46 -38 0
-111 -103 -47 -39 0
-112 -104 -48 -40 0
-109 -105 -45 -41 0
-110 -106 -46 -42 0
-111 -107 -47 -43 0
-112 -108 -48 -44 0
-113 -97 -49 -33 0
-114 -98 -50 -34 0
-115 -99 -51 -35 0
-116 -100 -52 -36 0
-113 -101 -49 -37 0
-114 -102 -50 -38 0
-115 -103 -51 -39 0
-116 -104 -52 -40 0
-113 -105 -49 -41 0
-114 -106 -50 -42 0
-115 -107 -51 -43 0
-116 -108 -52 -44 0
-113 -109 -49 -45 0
-114 -110 -50 -46 0
-115 -111 -51 -47 0
-116 -112 -52 -48 0
-117 -97 -53 -33 0
-118 -98 -54 -34 0
-119 -99 -55 -35 0
-120 -100 -56 -36 0
-117 -101 -53 -37 0
-118 -102 -54 -38 0
-119 -103 -55 -39 0
-120 -104 -56 -40 0
-117 -105 -53 -41 0
-118 -106 -54 -42 0
-119 -107 -55 -43 0
-120 -108 -56 -44 0
-117 -109 -53 -45 0
-118 -110 -54 -46 0
-119 -111 -55 -47 0
-120 -112 -56 -48 0
-117 -113 -53 -49 0
-118 -114 -54 -50 0
-119 -115 -55 -51 0
-120 -116 -56 -52 0
-121 -97 -57 -33 0
-122 -98 -58 -34 0
-123 -99 -59 -35 0
-124 -100 -60 -36 0
-121 -101 -57 -37 0
-122 -102 -58 -38 0
-123 -103 -59 -39 0
-124 -104 -60 -40 0
-121 -105 -57 -41 0
-122 -106 -58 -42 0
-123 -107 -59 -43 0
-124 -108 -60 -44 0
-121 -109 -57 -45 0
-122 -110 -58 -46 0
-123 -111 -59 -47 0
-124 -112 -60 -48 0
-121 -113 -57 -49 0
-122 -114 -58 -50 0
-123 -115 -59 -51 0
-124 -116 -60 -52 0
-121 -117 -57 -53 0
-122 -118 -58 -54 0
-123 -119 -59 -55 0
-124 -120 -60 -56 0
-125 -97 -61 -33 0
-126 -98 -62 -34 0
-127 -99 -63 -35 0
-128 -100 -64 -36 0
-125 -101 -61 -37 0
-126 -102 -62 -38 0
-127 -103 -63 -39 0
-128 -104 -64 -40 0
-125 -105 -61 -41 0
-126 -106 -62 -42 0
-127 -107 -63 -43 0
-128 -108 -64 -44 0
-125 -109 -61 -45 0
-126 -110 -62 -46 0
-127 -111 -63 -47 0
-128 -112 -64 -48 0
-125 -113 -61 -49 0
-126 -114 -62 -50 0
-127 -115 -63 -51 0
-128 -116 -64 -52 0
-125 -117 -61 -53 0
-126 -118 -62 -54 0
-127 -119 -63 -55 0
-128 -120 -64 -56 0
-125 -121 -61 -57 0
-126 -122 -62 -58 0
-127 -123 -63 -59 0
-128 -124 -64 -60 0
-101 -97 -69 -65 0
-102 -98 -70 -66 0
-103 -99 -71 -67 0
-104 -100 -72 -68 0
-105 -97 -73 -65 0
-106 -98 -74 -66 0
-107 -99 -75 -67 0
-108 -100 -76 -68 0
-105 -101 -73 -69 0
-106 -102 -74 -70 0
-107 -103 -75 -71 0
-108 -104 -76 -72 0
-109 -97 -77 -65 0
-110 -98 -78 -66 0
-111 -99 -79 -67 0
-112 -100 -80 -68 0
-109 -101 -77 -69 0
-110 -102 -78 -70 0
-111 -103 -79 -71 0
-112 -104 -80 -72 0
-109 -105 -77 -73 0
-110 -106 -78 -74 0
-111 -107 -79 -75 0
-112 -108 -80 -76 0
-113 -97 -81 -65 0
-114 -98 -82 -66 0
-115 -99 -83 -67 0
-116 -100 -84 -68 0
-113 -101 -81 -69 0
-114 -102 -82 -70 0
-115 -103 -83 -71 0
-116 -104 -84 -72 0
-113 -105 -81 -73 0
-114 -106 -82 -74 0
-115 -107 -83 -75 0
-116 -108 -84 -76 0
-113 -109 -81 -77 0
-114 -110 -82 -78 0
-115 -111 -83 -79 0
-116 -112 -84 -80 0
-117 -97 -85 -65 0
-118 -98 -86 -66 0
-119 -99 -87 -67 0
-120 -100 -88 -68 0
-117 -101 -85 -69 0
-118 -102 -86 -70 0
-119 -103 -87 -71 0
-120 -104 -88 -72 0
-117 -105 -85 -73 0
-118 -106 -86 -74 0
-119 -107 -87 -75 0
-120 -108 -88 -76 0
-117 -109 -85 -77 0
-118 -110 -86 -78 0
-119 -111 -87 -79 0
-120 -112 -88 -80 0
-117 -113 -85 -81 0
-118 -114 -86 -82 0
-119 -115 -87 -83 0
-120 -116 -88 -84 0
-121 -97 -89 -65 0
-122 -98 -90 -66 0
-123 -99 -91 -67 0
-124 -100 -92 -68 0
-121 -101 -89 -69 0
-122 -102 -90 -70 0
-123 -103 -91 -71 0
-124 -104 -92 -72 0
-121 -105 -89 -73 0
-122 -106 -90 -74 0
-123 -107 -91 -75 0
-124 -108 -92 -76 0
-121 -109 -89 -77 0
-122 -110 -90 -78 0
-123 -111 -91 -79 0
-124 -112 -92 -80 0
-121 -113 -89 -81 0
-122 -114 -90 -82 0
-123 -115 -91 -83 0
-124 -116 -92 -84 0
-121 -117 -89 -85 0
-122 -118 -90 -86 0
-123 -119 -91 -87 0
-124 -120 -92 -88 0
-125 -97 -93 -65 0
-126 -98 -94 -66 0
-127 -99 -95 -67 0
-128 -100 -96 -68 0
-125 -101 -93 -69 0
-126 -102 -94 -70 0
-127 -103 -95 -71 0
-128 -104 -96 -72 0
-125 -105 -93 -73 0
-126 -106 -94 -74 0
-127 -107 -95 -75 0
-128 -108 -96 -76 0
-125 -109 -93 -77 0
-126 -110 -94 -78 0
-127 -111 -95 -79 0
-128 -112 -96 -80 0
-125 -113 -93 -81 0
-126 -114 -94 -82 0
-127 -115 -95 -83 0
-128 -116 -96 -84 0
-125 -117 -93 -85 0
-126 -118 -94 -86 0
-127 -119 -95 -87 0
-128 -120 -96 -88 0
-125 -121 -93 -89 0
-126 -122 -94 -90 0
-127 -123 -95 -91 0
-128 -124 -96 -92 0
-133 -129 -5 -1 0
-134 -130 -6 -2 0
-135 -131 -7 -3 0
-136 -132 -8 -4 0
-137 -129 -9 -1 0
-138 -130 -10 -2 0
-139 -131 -11 -3 0
-140 -132 -12 -4 0
-137 -133 -9 -5 0
-138 -134 -10 -6 0
-139 -135 -11 -7 0
-140 -136 -12 -8 0
-141 -129 -13 -1 0
-142 -130 -14 -2 0
-143 -131 -15 -3 0
-144 -132 -16 -4 0
-141 -133 -13 -5 0
-142 -134 -14 -6 0
-143 -135 -15 -7 0
-144 -136 -16 -8 0
-141 -137 -13 -9 0
-142 -138 -14 -10 0
-143 -139 -15 -11 0
-144 -140 -16 -12 0
-145 -129 -17 -1 0
-146 -130 -18 -2 0
-147 -131 -19 -3 0
-148 -132 -20 -4 0
-145 -133 -17 -5 0
-146 -134 -18 -6 0
-147 -135 -19 -7 0
-148 -136 -20 -8 0
-145 -137 -17 -9 0
-146 -138 -18 -10 0
-147 -139 -19 -11 0
-148 -140 -20 -12 0
-145 -141 -17 -13 0
-146 -142 -18 -14 0
-147 -143 -19 -15 0
-148 -144 -20 -16 0
-149 -129 -21 -1 0
-150 -130 -22 -2 0
-151 -131 -23 -3 0
-152 -132 -24 -4 0
-149 -133 -21 -5 0
-150 -134 -22 -6 0
-151 -135 -23 -7 0
-152 -136 -24 -8 0
-149 -137 -21 -9 0
-150 -138 -22 -10 0
-151 -139 -23 -11 0
-152 -140 -24 -12 0
-149 -141 -21 -13 0
-150 -142 -22 -14 0
-151 -143 -23 -15 0
-152 -144 -24 -16 0
-149 -145 -21 -17 0
-150 -146 -22 -18 0
-151 -147 -23 -19 0
-152 -148 -24 -20 0
-153 -129 -25 -1 0
-154 -130 -26 -2 0
-155 -131 -27 -3 0
-156 -132 -28 -4 0
-153 -133 -25 -5 0
-154 -134 -26 -6 0
-155 -135 -27 -7 0
-156 -136 -28 -8 0
-153 -137 -25 -9 0
-154 -138 -26 -10 0
-155 -139 -27 -11 0
-156 -140 -28 -12 0
-153 -141 -25 -13 0
-154 -142 -26 -14 0
-155 -143 -27 -15 0
-156 -144 -28 -16 0
-153 -145 -25 -17 0
-154 -146 -26 -18 0
-155 -147 -27 -19 0
-156 -148 -28 -20 0
-153 -149 -25 -21 0
-154 -150 -26 -22 0
-155 -151 -27 -23 0
-156 -152 -28 -24 0
-157 -129 -29 -1 0
-158 -130 -30 -2 0
-159 -131 -31 -3 0
-160 -132 -32 -4 0
-157 -133 -29 -5 0
-158 -134 -30 -6 0
-159 -135 -31 -7 0
-160 -136 -32 -8 0
-157 -137 -29 -9 0
-158 -138 -30 -10 0
-159 -139 -31 -11 0
-160 -140 -32 -12 0
-157 -141 -29 -13 0
-158 -142 -30 -14 0
-159 -143 -31 -15 0
-160 -144 -32 -16 0
-157 -145 -29 -17 0
-158 -146 -30 -18 0
-159 -147 -31 -19 0
-160 -148 -32 -20 0
-157 -149 -29 -21 0
-158 -150 -30 -22 0
-159 -151 -31 -23 0
-160 -152 -32 -24 0
-157 -153 -29 -25 0
-158 -154 -30 -26 0
-159 -155 -31 -27 0
-160 -156 -32 -28 0
-133 -129 -37 -33 0
-134 -130 -38 -34 0
-135 -131 -39 -35 0
-136 -132 -40 -36 0
-137 -129 -41 -33 0
-138 -130 -42 -34 0
-139 -131 -43 -35 0
-140 -132 -44 -36 0
-137 -133 -41 -37 0
-138 -134 -42 -38 0
-139 -135 -43 -39 0
-140 -136 -44 -40 0
-141 -129 -45 -33 0
-142 -130 -46 -34 0
-143 -131 -47 -35 0
-144 -132 -48 -36 0
-141 -133 -45 -37 0
-142 -134 -46 -38 0
-143 -135 -47 -39 0
-144 -136 -48 -40 0
-141 -137 -45 -41 0
-142 -138 -46 -42 0
-143 -139 -47 -43 0
-144 -140 -48 -44 0
-145 -129 -49 -33 0
-146 -130 -50 -34 0
-147 -131 -51 -35 0
-148 -132 -52 -36 0
-145 -133 -49 -37 0
-146 -134 -50 -38 0
-147 -135 -51 -39 0
-148 -136 -52 -40 0
-145 -137 -49 -41 0
-146 -138 -50 -42 0
-147 -139 -51 -43 0
-148 -140 -52 -44 0
-145 -141 -49 -45 0
-146 -142 -50 -46 0
-147 -143 -51 -47 0
-148 -144 -52 -48 0
-149 -129 -53 -33 0
-150 -130 -54 -34 0
-151 -131 -55 -35 0
-152 -132 -56 -36 0
-149 -133 -53 -37 0
-150 -134 -54 -38 0
-151 -135 -55 -39 0
-152 -136 -56 -40 0
-149 -137 -53 -41 0
-150 -138 -54 -42 0
-151 -139 -55 -43 0
-152 -140 -56 -44 0
-149 -141 -53 -45 0
-150 -142 -54 -46 0
-151 -143 -55 -47 0
-152 -144 -56 -48 0
-149 -145 -53 -49 0
-150 -146 -54 -50 0
-151 -147 -55 -51 0
-152 -148 -56 -52 0
-153 -129 -57 -33 0
-154 -130 -58 -34 0
-155 -131 -59 -35 0
-156 -132 -60 -36 0
-153 -133 -57 -37 0
-154 -134 -58 -38 0
-155 -135 -59 -39 0
-156 -136 -60 -40 0
-153 -137 -57 -41 0
-154 -138 -58 -42 0
-155 -139 -59 -43 0
-156 -140 -60 -44 0
-153 -141 -57 -45 0
-154 -142 -58 -46 0
-155 -143 -59 -47 0
-156 -144 -60 -48 0
-153 -145 -57 -49 0
-154 -146 -58 -50 0
-155 -147 -59 -51 0
-156 -148 -60 -52 0
-153 -149 -57 -53 0
-154 -150 -58 -54 0
-155 -151 -59 -55 0
-156 -152 -60 -56 0
-157 -129 -61 -33 0
-158 -130 -62 -34 0
-159 -131 -63 -35 0
-160 -132 -64 -36 0
-157 -133 -61 -37 0
-158 -134 -62 -38 0
-159 -135 -63 -39 0
-160 -136 -64 -40 0
-157 -137 -61 -41 0
-158 -138 -62 -42 0
-159 -139 -63 -43 0
-160 -140 -64 -44 0
-157 -141 -61 -45 0
-158 -142 -62 -46 0
-159 -143 -63 -47 0
-160 -144 -64 -48 0
-157 -145 -61 -49 0
-158 -146 -62 -50 0
-159 -147 -63 -51 0
-160 -148 -64 -52 0
-157 -149 -61 -53 0
-158 -150 -62 -54 0
-159 -151 -63 -55 0
-160 -152 -64 -56 0
-157 -153 -61 -57 0
-158 -154 -62 -58 0
-159 -155 -63 -59 0
-160 -156 -64 -60 0
-133 -129 -69 -65 0
-134 -130 -70 -66 0
-135 -131 -71 -67 0
-136 -132 -72 -68 0
-137 -129 -73 -65 0
-138 -130 -74 -66 0
-139 -131 -75 -67 0
-140 -132 -76 -68 0
-137 -133 -73 -69 0
-138 -134 -74 -70 0
-139 -135 -75 -71 0
-140 -136 -76 -72 0
-141 -129 -77 -65 0
-142 -130 -78 -66 0
-143 -131 -79 -67 0
-144 -132 -80 -68 0
-141 -133 -77 -69 0
-142 -134 -78 -70 0
-143 -135 -79 -71 0
-144 -136 -80 -72 0
-141 -137 -77 -73 0
-142 -138 -78 -74 0
-143 -139 -79 -75 0
-144 -140 -80 -76 0
-145 -129 -81 -65 0
-146 -130 -82 -66 0
-147 -131 -83 -67 0
-148 -132 -84 -68 0
-145 -133 -81 -69 0
-146 -134 -82 -70 0
-147 -135 -83 -71 0
-148 -136 -84 -72 0
-145 -137 -81 -73 0
-146 -138 -82 -74 0
-147 -139 -83 -75 0
-148 -140 -84 -76 0
-145 -141 -81 -77 0
-146 -142 -82 -78 0
-147 -143 -83 -79 0
-148 -144 -84 -80 0
-149 -129 -85 -65 0
-150 -130 -86 -66 0
-151 -131 -87 -67 0
-152 -132 -88 -68 0
-149 -133 -85 -69 0
-150 -134 -86 -70 0
-151 -135 -87 -71 0
-152 -136 -88 -72 0
-149 -137 -85 -73 0
-150 -138 -86 -74 0
-151 -139 -87 -75 0
-152 -140 -88 -76 0
-149 -141 -85 -77 0
-150 -142 -86 -78 0
-151 -143 -87 -79 0
-152 -144 -88 -80 0
-149 -145 -85 -81 0
-150 -146 -86 -82 0
-151 -147 -87 -83 0
-152 -148 -88 -84 0
-153 -129 -89 -65 0
-154 -130 -90 -66 0
-155 -131 -91 -67 0
-156 -132 -92 -68 0
-153 -133 -89 -69 0
-154 -134 -90 -70 0
-155 -135 -91 -71 0
-156 -136 -92 -72 0
-153 -137 -89 -73 0
-154 -138 -90 -74 0
-155 -139 -91 -75 0
-156 -140 -92 -76 0
-153 -141 -89 -77 0
-154 -142 -90 -78 0
-155 -143 -91 -79 0
-156 -144 -92 -80 0
-153 -145 -89 -81 0
-154 -146 -90 -82 0
-155 -147 -91 -83 0
-156 -148 -92 -84 0
-153 -149 -89 -85 0
-154 -150 -90 -86 0
-155 -151 -91 -87 0
-156 -152 -92 -88 0
-157 -129 -93 -65 0
-158 -130 -94 -66 0
-159 -131 -95 -67 0
-160 -132 -96 -68 0
-157 -133 -93 -69 0
-158 -134 -94 -70 0
-159 -135 -95 -71 0
-160 -136 -96 -72 0
-157 -137 -93 -73 0
-158 -138 -94 -74 0
-159 -139 -95 -75 0
-160 -140 -96 -76 0
-157 -141 -93 -77 0
-158 -142 -94 -78 0
-159 -143 -95 -79 0
-160 -144 -96 -80 0
-157 -145 -93 -81 0
-158 -146 -94 -82 0
-159 -147 -95 -83 0
-160 -148 -96 -84 0
-157 -149 -93 -85 0
-158 -150 -94 -86 0
-159 -151 -95 -87 0
-160 -152 -96 -88 0
-157 -153 -93 -89 0
-158 -154 -94 -90 0
-159 -155 -95 -91 0
-160 -156 -96 -92 0
-133 -129 -101 -97 0
-134 -130 -102 -98 0
-135 -131 -103 -99 0
-136 -132 -104 -100 0
-137 -129 -105 -97 0
-138 -130 -106 -98 0
-139 -131 -107 -99 0
-140 -132 -108 -100 0
-137 -133 -105 -101 0
-138 -134 -106 -102 0
-139 -135 -107 -103 0
-140 -136 -108 -104 0
-141 -129 -109 -97 0
-142 -130 -110 -98 0
-143 -131 -111 -99 0
-144 -132 -112 -100 0
-141 -133 -109 -101 0
-142 -134 -110 -102 0
-143 -135 -111 -103 0
-144 -136 -112 -104 0
-141 -137 -109 -105 0
-142 -138 -110 -106 0
-143 -139 -111 -107 0
-144 -140 -112 -108 0
-145 -129 -113 -97 0
-146 -130 -114 -98 0
-147 -131 -115 -99 0
-148 -132 -116 -100 0
-145 -133 -113 -101 0
-146 -134 -114 -102 0
-147 -135 -115 -103 0
-148 -136 -116 -104 0
-145 -137 -113 -105 0
-146 -138 -114 -106 0
-147 -139 -115 -107 0
-148 -140 -116 -108 0
-145 -141 -113 -109 0
-146 -142 -114 -110 0
-147 -143 -115 -111 0
-148 -144 -116 -112 0
-149 -129 -117 -97 0
-150 -130 -118 -98 0
-151 -131 -119 -99 0
-152 -132 -120 -100 0
-149 -133 -117 -101 0
-150 -134 -118 -102 0
-151 -135 -119 -103 0
-152 -136 -120 -104 0
-149 -137 -117 -105 0
-150 -138 -118 -106 0
-151 -139 -119 -107 0
-152 -140 -120 -108 0
-149 -141 -117 -109 0
-150 -142 -118 -110 0
-151 -143 -119 -111 0
-152 -144 -120 -112 0
-149 -145 -117 -113 0
-150 -146 -118 -114 0
-151 -147 -119 -115 0
-152 -148 -120 -116 0
-153 -129 -121 -97 0
-154 -130 -122 -98 0
-155 -131 -123 -99 0
-156 -132 -124 -100 0
-153 -133 -121 -101 0
-154 -134 -122 -102 0
-155 -135 -123 -103 0
-156 -136 -124 -104 0
-153 -137 -121 -105 0
-154 -138 -122 -106 0
-155 -139 -123 -107 0
-156 -140 -124 -108 0
-153 -141 -121 -109 0
-154 -142 -122 -110 0
-155 -143 -123 -111 0
-156 -144 -124 -112 0
-153 -145 -121 -113 0
-154 -146 -122 -114 0
-155 -147 -123 -115 0
-156 -148 -124 -116 0
-153 -149 -121 -117 0
-154 -150 -122 -118 0
-155 -151 -123 -119 0
-156 -152 -124 -120 0
-157 -129 -125 -97 0
-158 -130 -126 -98 0
-159 -131 -127 -99 0
-160 -132 -128 -100 0
-157 -133 -125 -101 0
-158 -134 -126 -102 0
-159 -135 -127 -103 0
-160 -136 -128 -104 0
-157 -137 -125 -105 0
-158 -138 -126 -106 0
-159 -139 -127 -107 0
-160 -140 -128 -108 0
-157 -141 -125 -109 0
-158 -142 -126 -110 0
-159 -143 -127 -111 0
-160 -144 -128 -112 0
-157 -145 -125 -113 0
-158 -146 -126 -114 0
-159 -147 -127 -115 0
-160 -148 -128 -116 0
-157 -149 -125 -117 0
-158 -150 -126 -118 0
-159 -151 -127 -119 0
-160 -152 -128 -120 0
-157 -153 -125 -121 0
-158 -154 -126 -122 0
-159 -155 -127 -123 0
-160 -156 -128 -124 0
-165 -161 -5 -1 0
-166 -162 -6 -2 0
-167 -163 -7 -3 0
-168 -164 -8 -4 0
-169 -161 -9 -1 0
-170 -162 -10 -2 0
-171 -163 -11 -3 0
-172 -164 -12 -4 0
-169 -165 -9 -5 0
-170 -166 -10 -6 0
-171 -167 -11 -7 0
-172 -168 -12 -8 0
-173 -161 -13 -1 0
-174 -162 -14 -2 0
-175 -163 -15 -3 0
-176 -164 -16 -4 0
-173 -165 -13 -5 0
-174 -166 -14 -6 0
-175 -167 -15 -7 0
-176 -168 -16 -8 0
-173 -169 -13 -9 0
-174 -170 -14 -10 0
-175 -171 -15 -11 0
-176 -172 -16 -12 0
-177 -161 -17 -1 0
-178 -162 -18 -2 0
-179 -163 -19 -3 0
-180 -164 -20 -4 0
-177 -165 -17 -5 0
-178 -166 -18 -6 0
-179 -167 -19 -7 0
-180 -168 -20 -8 0
-177 -169 -17 -9 0
-178 -170 -18 -10 0
-179 -171 -19 -11 0
-180 -172 -20 -12 0
-177 -173 -17 -13 0
-178 -174 -18 -14 0
-179 -175 -19 -15 0
-180 -176 -20 -16 0
-181 -161 -21 -1 0
-182 -162 -22 -2 0
-183 -163 -23 -3 0
-184 -164 -24 -4 0
-181 -165 -21 -5 0
-182 -166 -22 -6 0
-183 -167 -23 -7 0
-184 -168 -24 -8 0
-181 -169 -21 -9 0
-182 -170 -22 -10 0
-183 -171 -23 -11 0
-184 -172 -24 -12 0
-181 -173 -21 -13 0
-182 -174 -22 -14 0
-183 -175 -23 -15 0
-184 -176 -24 -16 0
-181 -177 -21 -17 0
-182 -178 -22 -18 0
-183 -179 -23 -19 0
-184 -180 -24 -20 0
-185 -161 -25 -1 0
-186 -162 -26 -2 0
-187 -163 -27 -3 0
-188 -164 -28 -4 0
-185 -165 -25 -5 0
-186 -166 -26 -6 0
-187 -167 -27 -7 0
-188 -168 -28 -8 0
-185 -169 -25 -9 0
-186 -170 -26 -10 0
-187 -171 -27 -11 0
-188 -172 -28 -12 0
-185 -173 -25 -13 0
-186 -174 -26 -14 0
-187 -175 -27 -15 0
-188 -176 -28 -16 0
-185 -177 -25 -17 0
-186 -178 -26 -18 0
-187 -179 -27 -19 0
-188 -180 -28 -20 0
-185 -181 -25 -21 0
-186 -182 -26 -22 0
-187 -183 -27 -23 0
-188 -184 -28 -24 0
-189 -161 -29 -1 0
-190 -162 -30 -2 0
-191 -163 -31 -3 0
-192 -164 -32 -4 0
-189 -165 -29 -5 0
-190 -166 -30 -6 0
-191 -167 -31 -7 0
-192 -168 -32 -8 0
-189 -169 -29 -9 0
-190 -170 -30 -10 0
-191 -171 -31 -11 0
-192 -172 -32 -12 0
-189 -173 -29 -13 0
-190 -174 -30 -14 0
-191 -175 -31 -15 0
-192 -176 -32 -16 0
-189 -177 -29 -17 0
-190 -178 -30 -18 0
-191 -179 -31 -19 0
-192 -180 -32 -20 0
-189 -181 -29 -21 0
-190 -182 -30 -22 0
-191 -183 -31 -23 0
-192 -184 -32 -24 0
-189 -185 -29 -25 0
-190 -186 -30 -26 0
-191 -187 -31 -27 0
-192 -188 -32 -28 0
-165 -161 -37 -33 0
-166 -162 -38 -34 0
-167 -163 -39 -35 0
-168 -164 -40 -36 0
-169 -161 -41 -33 0
-170 -162 -42 -34 0
-171 -163 -43 -35 0
-172 -164 -44 -36 0
-169 -165 -41 -37 0
-170 -166 -42 -38 0
-171 -167 -43 -39 0
-172 -168 -44 -40 0
-173 -161 -45 -33 0
-174 -162 -46 -34 0
-175 -163 -47 -35 0
-176 -164 -48 -36 0
-173 -165 -45 -37 0
-174 -166 -46 -38 0
-175 -167 -47 -39 0
-176 -168 -48 -40 0
-173 -169 -45 -41 0
-174 -170 -46 -42 0
-175 -171 -47 -43 0
-176 -172 -48 -44 0
-177 -161 -49 -33 0
-178 -162 -50 -34 0
-179 -163 -51 -35 0
-180 -164 -52 -36 0
-177 -165 -49 -37 0
-178 -166 -50 -38 0
-179 -167 -51 -39 0
-180 -168 -52 -40 0
-177 -169 -49 -41 0
-178 -170 -50 -42 0
-179 -171 -51 -43 0
-180 -172 -52 -44 0
-177 -173 -49 -45 0
-178 -174 -50 -46 0
-179 -175 -51 -47 0
-180 -176 -52 -48 0
-181 -161 -53 -33 0
-182 -162 -54 -34 0
-183 -163 -55 -35 0
-184 -164 -56 -36 0
-181 -165 -53 -37 0
-182 -166 -54 -38 0
-183 -167 -55 -39 0
-184 -168 -56 -40 0
-181 -169 -53 -41 0
-182 -170 -54 -42 0
-183 -171 -55 -43 0
-184 -172 -56 -44 0
-181 -173 -53 -45 0
-182 -174 -54 -46 0
-183 -175 -55 -47 0
-184 -176 -56 -48 0
-181 -177 -53 -49 0
-182 -178 -54 -50 0
-183 -179 -55 -51 0
-184 -180 -56 -52 0
-185 -161 -57 -33 0
-186 -162 -58 -34 0
-187 -163 -59 -35 0
-188 -164 -60 -36 0
-185 -165 -57 -37 0
-186 -166 -58 -38 0
-187 -167 -59 -39 0
-188 -168 -60 -40 0
-185 -169 -57 -41 0
-186 -170 -58 -42 0
-187 -171 -59 -43 0
-188 -172 -60 -44 0
-185 -173 -57 -45 0
-186 -174 -58 -46 0
-187 -175 -59 -47 0
-188 -176 -60 -48 0
-185 -177 -57 -49 0
-186 -178 -58 -50 0
-187 -179 -59 -51 0
-188 -180 -60 -52 0
-185 -181 -57 -53 0
-186 -182 -58 -54 0
-187 -183 -59 -55 0
-188 -184 -60 -56 0
-189 -161 -61 -33 0
-190 -162 -62 -34 0
-191 -163 -63 -35 0
-192 -164 -64 -36 0
-189 -165 -61 -37 0
-190 -166 -62 -38 0
-191 -167 -63 -39 0
-192 -168 -64 -40 0
-189 -169 -61 -41 0
-190 -170 -62 -42 0
-191 -171 -63 -43 0
-192 -172 -64 -44 0
-189 -173 -61 -45 0
-190 -174 -62 -46 0
-191 -175 -63 -47 0
-192 -176 -64 -48 0
-189 -177 -61 -49 0
-190 -178 -62 -50 0
-191 -179 -63 -51 0
-192 -180 -64 -52 0
-189 -181 -61 -53 0
-190 -182 -62 -54 0
-191 -183 -63 -55 0
-192 -184 -64 -56 0
-189 -185 -61 -57 0
-190 -186 -62 -58 0
-191 -187 -63 -59 0
-192 -188 -64 -60 0
-165 -161 -69 -65 0
-166 -162 -70 -66 0
-167 -163 -71 -67 0
-168 -164 -72 -68 0
-169 -161 -73 -65 0
-170 -162 -74 -66 0
-171 -163 -75 -67 0
-172 -164 -76 -68 0
-169 -165 -73 -69 0
-170 -166 -74 -70 0
-171 -167 -75 -71 0
-172 -168 -76 -72 0
-173 -161 -77 -65 0
-174 -162 -78 -66 0
-175 -163 -79 -67 0
-176 -164 -80 -68 0
-173 -165 -77 -69 0
-174 -166 -78 -70 0
-175 -167 -79 -71 0
-176 -168 -80 -72 0
-173 -169 -77 -73 0
-174 -170 -78 -74 0
-175 -171 -79 -75 0
-176 -172 -80 -76 0
-177 -161 -81 -65 0
-178 -162 -82 -66 0
-179 -163 -83 -67 0
-180 -164 -84 -68 0
-177 -165 -81 -69 0
-178 -166 -82 -70 0
-179 -167 -83 -71 0
-180 -168 -84 -72 0
-177 -169 -81 -73 0
-178 -170 -82 -74 0
-179 -171 -83 -75 0
-180 -172 -84 -76 0
-177 -173 -81 -77 0
-178 -174 -82 -78 0
-179 -175 -83 -79 0
-180 -176 -84 -80 0
-181 -161 -85 -65 0
-182 -162 -86 -66 0
-183 -163 -87 -67 0
-184 -164 -88 -68 0
-181 -165 -85 -69 0
-182 -166 -86 -70 0
-183 -167 -87 -71 0
-184 -168 -88 -72 0
-181 -169 -85 -73 0
-182 -170 -86 -74 0
-183 -171 -87 -75 0
-184 -172 -88 -76 0
-181 -173 -85 -77 0
-182 -174 -86 -78 0
-183 -175 -87 -79 0
-184 -176 -88 -80 0
-181 -177 -85 -81 0
-182 -178 -86 -82 0
-183 -179 -87 -83 0
-184 -180 -88 -84 0
-185 -161 -89 -65 0
-186 -162 -90 -66 0
-187 -163 -91 -67 0
-188 -164 -92 -68 0
-185 -165 -89 -69 0
-186 -166 -90 -70 0
-187 -167 -91 -71 0
-188 -168 -92 -72 0
-185 -169 -89 -73 0
-186 -170 -90 -74 0
-187 -171 -91 -75 0
-188 -172 -92 -76 0
-185 -173 -89 -77 0
-186 -174 -90 -78 0
-187 -175 -91 -79 0
-188 -176 -92 -80 0
-185 -177 -89 -81 0
-186 -178 -90 -82 0
-187 -179 -91 -83 0
-188 -180 -92 -84 0
-185 -181 -89 -85 0
-186 -182 -90 -86 0
-187 -183 -91 -87 0
-188 -184 -92 -88 0
-189 -161 -93 -65 0
-190 -162 -94 -66 0
-191 -163 -95 -67 0
-192 -164 -96 -68 0
-189 -165 -93 -69 0
-190 -166 -94 -70 0
-191 -167 -95 -71 0
-192 -168 -96 -72 0
-189 -169 -93 -73 0
-190 -170 -94 -74 0
-191 -171 -95 -75 0
-192 -172 -96 -76 0
-189 -173 -93 -77 0
-190 -174 -94 -78 0
-191 -175 -95 -79 0
-192 -176 -96 -80 0
-189 -177 -93 -81 0
-190 -178 -94 -82 0
-191 -179 -95 -83 0
-192 -180 -96 -84 0
-189 -181 -93 -85 0
-190 -182 -94 -86 0
-191 -183 -95 -87 0
-192 -184 -96 -88 0
-189 -185 -93 -89 0
-190 -186 -94 -90 0
-191 -187 -95 -91 0
-192 -188 -96 -92 0
-165 -161 -101 -97 0
-166 -162 -102 -98 0
-167 -163 -103 -99 0
-168 -164 -104 -100 0
-169 -161 -105 -97 0
-170 -162 -106 -98 0
-171 -163 -107 -99 0
-172 -164 -108 -100 0
-169 -165 -105 -101 0
-170 -166 -106 -102 0
-171 -167 -107 -103 0
-172 -168 -108 -104 0
-173 -161 -109 -97 0
-174 -162 -110 -98 0
-175 -163 -111 -99 0
-176 -164 -112 -100 0
-173 -165 -109 -101 0
-174 -166 -110 -102 0
-175 -167 -111 -103 0
-176 -168 -112 -104 0
-173 -169 -109 -105 0
-174 -170 -110 -106 0
-175 -171 -111 -107 0
-176 -172 -112 -108 0
-177 -161 -113 -97 0
-178 -162 -114 -98 0
-179 -163 -115 -99 0
-180 -164 -116 -100 0
-177 -165 -113 -101 0
-178 -166 -114 -102 0
-179 -167 -115 -103 0
-180 -168 -116 -104 0
-177 -169 -113 -105 0
-178 -170 -114 -106 0
-179 -171 -115 -107 0
-180 -172 -116 -108 0
-177 -173 -113 -109 0
-178 -174 -114 -110 0
-179 -175 -115 -111 0
-180 -176 -116 -112 0
-181 -161 -117 -97 0
-182 -162 -118 -98 0
-183 -163 -119 -99 0
-184 -164 -120 -100 0
-181 -165 -117 -101 0
-182 -166 -118 -102 0
-183 -167 -119 -103 0
-184 -168 -120 -104 0
-181 -169 -117 -105 0
-182 -170 -118 -106 0
-183 -171 -119 -107 0
-184 -172 -120 -108 0
-181 -173 -117 -109 0
-182 -174 -118 -110 0
-183 -175 -119 -111 0
-184 -176 -120 -112 0
-181 -177 -117 -113 0
-182 -178 -118 -114 0
-183 -179 -119 -115 0
-184 -180 -120 -116 0
-185 -161 -121 -97 0
-186 -162 -122 -98 0
-187 -163 -123 -99 0
-188 -164 -124 -100 0
-185 -165 -121 -101 0
-186 -166 -122 -102 0
-187 -167 -123 -103 0
-188 -168 -124 -104 0
-185 -169 -121 -105 0
-186 -170 -122 -106 0
-187 -171 -123 -107 0
-188 -172 -124 -108 0
-185 -173 -121 -109 0
-186 -174 -122 -110 0
-187 -175 -123 -111 0
-188 -176 -124 -112 0
-185 -177 -121 -113 0
-186 -178 -122 -114 0
-187 -179 -123 -115 0
-188 -180 -124 -116 0
-185 -181 -121 -117 0
-186 -182 -122 -118 0
-187 -183 -123 -119 0
-188 -184 -124 -120 0
-189 -161 -125 -97 0
-190 -162 -126 -98 0
-191 -163 -127 -99 0
-192 -164 -128 -100 0
-189 -165 -125 -101 0
-190 -166 -126 -102 0
-191 -167 -127 -103 0
-192 -168 -128 -104 0
-189 -169 -125 -105 0
-190 -170 -126 -106 0
-191 -171 -127 -107 0
-192 -172 -128 -108 0
-189 -173 -125 -109 0
-190 -174 -126 -110 0
-191 -175 -127 -111 0
-192 -176 -128 -112 0
-189 -177 -125 -113 0
-190 -178 -126 -114 0
-191 -179 -127 -115 0
-192 -180 -128 -116 0
-189 -181 -125 -117 0
-190 -182 -126 -118 0
-191 -183 -127 -119 0
-192 -184 -128 -120 0
-189 -185 -125 -121 0
-190 -186 -126 -122 0
-191 -187 -127 -123 0
-192 -188 -128 -124 0
-165 -161 -133 -129 0
-166 -162 -134 -130 0
-167 -163 -135 -131 0
-168 -164 -136 -132 0
-169 -161 -137 -129 0
-170 -162 -138 -130 0
-171 -163 -139 -131 0
-172 -164 -140 -132 0
-169 -165 -137 -133 0
-170 -166 -138 -134 0
-171 -167 -139 -135 0
-172 -168 -140 -136 0
-173 -161 -141 -129 0
-174 -162 -142 -130 0
-175 -163 -143 -131 0
-176 -164 -144 -132 0
-173 -165 -141 -133 0
-174 -166 -142 -134 0
-175 -167 -143 -135 0
-176 -168 -144 -136 0
-173 -169 -141 -137 0
-174 -170 -142 -138 0
-175 -171 -143 -139 0
-176 -172 -144 -140 0
-177 -161 -145 -129 0
-178 -162 -146 -130 0
-179 -163 -147 -131 0
-180 -164 -148 -132 0
-177 -165 -145 -133 0
-178 -166 -146 -134 0
-179 -167 -147 -135 0
-180 -168 -148 -136 0
-177 -169 -145 -137 0
-178 -170 -146 -138 0
-179 -171 -147 -139 0
-180 -172 -148 -140 0
-177 -173 -145 -141 0
-178 -174 -146 -142 0
-179 -175 -147 -143 0
-180 -176 -148 -144 0
-181 -161 -149 -129 0
-182 -162 -150 -130 0
-183 -163 -151 -131 0
-184 -164 -152 -132 0
-181 -165 -149 -133 0
-182 -166 -150 -134 0
-183 -167 -151 -135 0
-184 -168 -152 -136 0
-181 -169 -149 -137 0
-182 -170 -150 -138 0
-183 -171 -151 -139 0
-184 -172 -152 -140 0
-181 -173 -149 -141 0
-182 -174 -150 -142 0
-183 -175 -151 -143 0
-184 -176 -152 -144 0
-181 -177 -149 -145 0
-182 -178 -150 -146 0
-183 -179 -151 -147 0
-184 -180 -152 -148 0
-185 -161 -153 -129 0
-186 -162 -154 -130 0
-187 -163 -155 -131 0
-188 -164 -156 -132 0
-185 -165 -153 -133 0
-186 -166 -154 -134 0
-187 -167 -155 -135 0
-188 -168 -156 -136 0
-185 -169 -153 -137 0
-186 -170 -154 -138 0
-187 -171 -155 -139 0
-188 -172 -156 -140 0
-185 -173 -153 -141 0
-186 -174 -154 -142 0
-187 -175 -155 -143 0
-188 -176 -156 -144 0
-185 -177 -153 -145 0
-186 -178 -154 -146 0
-187 -179 -155 -147 0
-188 -180 -156 -148 0
-185 -181 -153 -149 0
-186 -182 -154 -150 0
-187 -183 -155 -151 0
-188 -184 -156 -152 0
-189 -161 -157 -129 0
-190 -162 -158 -130 0
-191 -163 -159 -131 0
-192 -164 -160 -132 0
-189 -165 -157 -133 0
-190 -166 -158 -134 0
-191 -167 -159 -135 0
-192 -168 -160 -136 0
-189 -169 -157 -137 0
-190 -170 -158 -138 0
-191 -171 -159 -139 0
-192 -172 -160 -140 0
-189 -173 -157 -141 0
-190 -174 -158 -142 0
-191 -175 -159 -143 0
-192 -176 -160 -144 0
-189 -177 -157 -145 0
-190 -178 -158 -146 0
-191 -179 -159 -147 0
-192 -180 -160 -148 0
-189 -181 -157 -149 0
-190 -182 -158 -150 0
-191 -183 -159 -151 0
-192 -184 -160 -152 0
-189 -185 -157 -153 0
-190 -186 -158 -154 0
-191 -187 -159 -155 0
-192 -188 -160 -156 0
